Copyright (C) 2013-2015, Filipe Brandao
Build (method = -2)
  #dp: 2424
  Step-3' Graph: 84 vertices and 933 arcs (0.00s)
  Step-4' Graph: 71 vertices and 907 arcs (0.00s)
  #V4/#V3 = 0.85
  #A4/#A3 = 0.97
Ready! (0.00s)
Optimize a model with 147 rows, 908 columns and 2586 nonzeros
Found heuristic solution: objective 87
Presolve removed 45 rows and 60 columns
Presolve time: 0.01s
Presolved: 102 rows, 848 columns, 2270 nonzeros
Variable types: 0 continuous, 848 integer (542 binary)
Optimize a model with 102 rows, 848 columns and 2270 nonzeros
Presolved: 102 rows, 848 columns, 2270 nonzeros

Root barrier log...

Ordering time: 0.00s

Barrier statistics:
 AA' NZ     : 1.147e+03
 Factor NZ  : 2.546e+03
 Factor Ops : 7.976e+04 (less than 1 second per iteration)
 Threads    : 1

                  Objective                Residual
Iter       Primal          Dual         Primal    Dual     Compl     Time
   0   1.23532057e+03 -2.37173186e+03  4.76e+03 1.88e-01  1.35e+01     0s
   1   3.46127491e+02 -7.66150861e+02  8.10e+02 5.55e-16  2.45e+00     0s
   2   1.00616475e+02 -2.05663565e+02  4.79e+01 2.16e-15  2.67e-01     0s
   3   6.94049484e+01  1.10868880e+01  5.10e+00 1.28e-15  4.03e-02     0s
   4   5.95891491e+01  3.07796072e+01  9.12e-01 8.88e-16  1.77e-02     0s
   5   5.58328081e+01  4.19605371e+01  3.14e-01 9.09e-16  8.38e-03     0s
   6   5.33155496e+01  5.01825774e+01  8.59e-02 6.23e-16  1.90e-03     0s
   7   5.25506412e+01  5.23703403e+01  5.29e-03 5.55e-16  1.09e-04     0s
   8   5.25001161e+01  5.24998715e+01  4.56e-06 7.22e-16  1.47e-07     0s
   9   5.25000000e+01  5.25000000e+01  4.32e-12 7.77e-16  1.47e-13     0s

Barrier solved model in 9 iterations and 0.00 seconds
Optimal objective 5.25000000e+01


Root relaxation: objective 5.250000e+01, 277 iterations, 0.01 seconds

    Nodes    |    Current Node    |     Objective Bounds      |     Work
 Expl Unexpl |  Obj  Depth IntInf | Incumbent    BestBd   Gap | It/Node Time

     0     0   52.50000    0    5   87.00000   52.50000  39.7%     -    0s
H    0     0                      53.0000000   52.50000  0.94%     -    0s

Explored 0 nodes (335 simplex iterations) in 0.02 seconds
Thread count was 1 (of 4 available processors)

Optimal solution found (tolerance 0.00e+00)
Best objective 5.300000000000e+01, best bound 5.300000000000e+01, gap 0.0%
Preprocessing time: 0.00 seconds
Gurobi run time: 0.02 seconds
Total run time: 0.02 seconds
Objective: 53
Solution:
1 x [i=1]
1 x [i=2, i=75]
1 x [i=3, i=75]
1 x [i=4, i=76]
1 x [i=5, i=74]
1 x [i=6, i=73]
1 x [i=7, i=72]
1 x [i=8, i=70]
2 x [i=8, i=72]
1 x [i=9, i=69]
1 x [i=10, i=67]
1 x [i=11, i=68]
1 x [i=12, i=68]
1 x [i=13, i=66]
1 x [i=14, i=64]
4 x [i=15]
1 x [i=15, i=63]
1 x [i=16, i=65]
1 x [i=17, i=66]
1 x [i=18, i=66]
1 x [i=19, i=62]
1 x [i=20, i=59]
2 x [i=21, i=60]
1 x [i=22, i=58]
1 x [i=23, i=69]
2 x [i=24, i=61]
1 x [i=25, i=56]
1 x [i=25, i=57]
1 x [i=26, i=71]
1 x [i=27]
1 x [i=28, i=54]
1 x [i=29, i=52]
1 x [i=30, i=54]
1 x [i=31, i=55]
1 x [i=32, i=49]
1 x [i=32, i=51]
1 x [i=33, i=48]
1 x [i=34, i=46]
1 x [i=35, i=46]
1 x [i=36, i=53]
1 x [i=37, i=45]
1 x [i=38, i=45]
1 x [i=39, i=43]
1 x [i=40, i=41]
1 x [i=42, i=44]
1 x [i=47, i=47]
1 x [i=50, i=55]
